100 10
434 417
528 646
394 708
463 329
348 232
604 292
183 743
581 509
583 746
377 761
742 717
438 239
383 522
429 421
247 928
411 263
862 520
381 580
689 385
430 457
214 101
298 670
582 645
655 694
468 556
304 511
171 572
130 575
330 740
535 925
547 580
321 557
693 323
533 828
474 374
529 656
173 179
184 676
197 874
368 808
381 860
181 441
210 566
448 872
86 219
886 479
443 472
869 130
653 115
420 550
755 715
450 653
648 625
766 318
688 929
703 569
150 406
580 548
552 399
376 380
808 404
578 434
251 949
497 612
353 679
538 498
406 519
327 510
253 524
758 257
418 818
227 237
378 465
573 740
703 485
466 844
134 843
245 758
219 928
544 827
132 554
649 310
532 375
481 472
355 574
733 640
218 225
856 385
456 630
942 454
467 572
552 345
331 130
264 180
832 240
446 562
486 448
577 503
838 533
648 555
